
Gurobi 10.0.0 (win64) logging started Tue Jun  4 15:48:58 2024

Set parameter LogFile to value "C:\Users\ealvarezq\Documents\GitHub\Comillas\Models\JointResearch\05. Models\06.Benchmarking\D.Representative_days_based_on_RES_and_Demand\9n_mod1_ByStages_nc80/openStarNet_9n_mod1_ByStages_nc80.log"
Set parameter Method to value 2
Set parameter MIPFocus to value 1
Set parameter Presolve to value 2
Set parameter RINS to value 100
Set parameter MIPGap to value 0.01
Set parameter Threads to value 9
Set parameter TimeLimit to value 259200
Set parameter IterationLimit to value 760000000
Gurobi Optimizer version 10.0.0 build v10.0.0rc2 (win64)

CPU model: Intel(R) Core(TM) i7-8700 CPU @ 3.20GHz, instruction set [SSE2|AVX|AVX2]
Thread count: 6 physical cores, 12 logical processors, using up to 9 threads

Optimize a model with 20963 rows, 11158 columns and 63462 nonzeros
Model fingerprint: 0x7a7c5f54
Variable types: 11122 continuous, 36 integer (36 binary)
Coefficient statistics:
  Matrix range     [2e-04, 7e+02]
  Objective range  [1e+00, 1e+00]
  Bounds range     [9e-05, 2e+00]
  RHS range        [9e-05, 1e+00]
Presolve removed 7123 rows and 3764 columns
Presolve time: 0.08s
Presolved: 13840 rows, 7394 columns, 47358 nonzeros
Variable types: 7358 continuous, 36 integer (36 binary)
Found heuristic solution: objective 4655.9188866
Root relaxation presolved: 13840 rows, 7394 columns, 47358 nonzeros

Root barrier log...

Ordering time: 0.01s

Barrier statistics:
 Dense cols : 36
 AA' NZ     : 1.639e+05
 Factor NZ  : 3.242e+05 (roughly 11 MB of memory)
 Factor Ops : 1.080e+07 (less than 1 second per iteration)
 Threads    : 9

                  Objective                Residual
Iter       Primal          Dual         Primal    Dual     Compl     Time
   0   4.78522376e+05 -1.87678445e+07  7.25e+00 9.96e+01  2.70e+03     0s
   1   8.14517298e+04 -7.61739753e+06  1.03e+00 1.95e-09  4.18e+02     0s
   2   1.74919175e+04 -1.57221807e+06  5.26e-02 4.02e-09  6.09e+01     0s
   3   4.76766394e+03 -5.22474726e+04  1.37e-03 2.07e-10  2.10e+00     0s
   4   1.12799920e+03 -8.46860368e+03  1.57e-06 3.27e-11  3.52e-01     0s
   5   7.56699013e+02 -3.71664850e+03  2.38e-07 1.42e-11  1.64e-01     0s
   6   4.53361459e+02 -1.33753012e+03  8.38e-08 5.05e-12  6.57e-02     0s
   7   1.96049484e+02 -2.21873540e+02  1.11e-08 8.72e-13  1.53e-02     0s
   8   1.37599149e+02 -2.15388795e+01  4.52e-09 4.59e-13  5.84e-03     0s
   9   9.72584687e+01  5.40999633e+01  1.16e-09 5.38e-13  1.58e-03     0s
  10   9.14091503e+01  7.33541083e+01  7.14e-10 5.72e-13  6.62e-04     0s
  11   8.84847409e+01  7.77170861e+01  4.63e-10 4.69e-13  3.95e-04     0s
  12   8.72829951e+01  7.82450728e+01  3.68e-10 3.71e-13  3.31e-04     0s
  13   8.65847989e+01  7.84469326e+01  3.10e-10 3.67e-13  2.98e-04     0s
  14   8.58814366e+01  7.92392653e+01  2.55e-10 3.61e-13  2.44e-04     0s
  15   8.43346671e+01  8.04835119e+01  1.31e-10 3.95e-13  1.41e-04     0s
  16   8.33650011e+01  8.08518303e+01  6.30e-11 3.46e-13  9.22e-05     0s
  17   8.26811832e+01  8.20906008e+01  2.03e-11 4.57e-13  2.17e-05     0s
  18   8.26735412e+01  8.22240010e+01  3.94e-11 6.01e-13  1.65e-05     0s
  19   8.25956322e+01  8.22290393e+01  1.22e-10 5.49e-13  1.34e-05     0s
  20   8.24942515e+01  8.23239057e+01  9.79e-11 4.10e-13  6.25e-06     0s
  21   8.24519978e+01  8.23681226e+01  1.58e-09 1.01e-12  3.08e-06     0s
  22   8.23818757e+01  8.23766961e+01  2.21e-09 2.22e-12  1.90e-07     0s
  23   8.23803082e+01  8.23802968e+01  1.34e-09 4.65e-13  4.23e-10     0s
  24   8.23803029e+01  8.23803029e+01  3.74e-11 5.60e-13  3.90e-15     0s

Barrier solved model in 24 iterations and 0.35 seconds (0.30 work units)
Optimal objective 8.23803029e+01


Root relaxation: objective 8.238030e+01, 914 iterations, 0.24 seconds (0.20 work units)

    Nodes    |    Current Node    |     Objective Bounds      |     Work
 Expl Unexpl |  Obj  Depth IntInf | Incumbent    BestBd   Gap | It/Node Time

     0     0   82.38030    0    7 4655.91889   82.38030  98.2%     -    0s
H    0     0                      85.6366625   82.38030  3.80%     -    0s

Cutting planes:
  Gomory: 1
  MIR: 23

Explored 1 nodes (914 simplex iterations) in 0.57 seconds (0.42 work units)
Thread count was 9 (of 12 available processors)

Solution count 2: 85.6367 4655.92 

Optimal solution found (tolerance 1.00e-02)
Best objective 8.563666248392e+01, best bound 8.527175776296e+01, gap 0.4261%

Gurobi 10.0.0 (win64) logging started Tue Jun  4 15:49:03 2024

Set parameter LogFile to value "C:\Users\ealvarezq\Documents\GitHub\Comillas\Models\JointResearch\05. Models\06.Benchmarking\D.Representative_days_based_on_RES_and_Demand\9n_mod1_ByStages_nc80/openStarNet_9n_mod1_ByStages_nc80.log"
Set parameter Method to value 2
Set parameter MIPFocus to value 1
Set parameter Presolve to value 2
Set parameter RINS to value 100
Set parameter MIPGap to value 0.01
Set parameter Threads to value 9
Set parameter TimeLimit to value 259200
Set parameter IterationLimit to value 760000000
Gurobi Optimizer version 10.0.0 build v10.0.0rc2 (win64)

CPU model: Intel(R) Core(TM) i7-8700 CPU @ 3.20GHz, instruction set [SSE2|AVX|AVX2]
Thread count: 6 physical cores, 12 logical processors, using up to 9 threads

Optimize a model with 20963 rows, 11122 columns and 51906 nonzeros
Model fingerprint: 0xa8a86cf5
Coefficient statistics:
  Matrix range     [2e-04, 7e+02]
  Objective range  [1e+00, 1e+00]
  Bounds range     [9e-05, 2e+00]
  RHS range        [9e-05, 2e+01]
Presolve removed 19094 rows and 7364 columns
Presolve time: 0.03s
Presolved: 1869 rows, 3838 columns, 8296 nonzeros

Ordering time: 0.00s

Barrier statistics:
 AA' NZ     : 4.145e+03
 Factor NZ  : 1.847e+04 (roughly 2 MB of memory)
 Factor Ops : 2.403e+05 (less than 1 second per iteration)
 Threads    : 1

                  Objective                Residual
Iter       Primal          Dual         Primal    Dual     Compl     Time
   0   5.32502100e+05 -9.79682940e+06  6.79e+00 1.17e+02  5.99e+03     0s
   1   9.37222670e+04 -4.98777007e+06  1.04e+00 5.46e-12  1.09e+03     0s
   2   2.63449130e+04 -1.33886781e+06  1.43e-01 6.37e-12  1.94e+02     0s
   3   1.08787747e+04 -1.18909909e+05  3.88e-03 6.59e-12  1.51e+01     0s
   4   2.44758122e+03 -4.93388400e+03  3.87e-05 8.19e-12  8.44e-01     0s
   5   8.38807385e+02 -1.48661784e+03  3.57e-07 3.18e-12  2.66e-01     0s
   6   5.06489375e+02 -5.07542786e+02  1.50e-07 1.13e-12  1.16e-01     0s
   7   2.31895671e+02 -1.11157274e+02  3.82e-08 7.70e-13  3.92e-02     0s
   8   1.45173462e+02 -8.33969152e-02  1.47e-08 8.14e-13  1.66e-02     0s
   9   9.81674672e+01  6.13958245e+01  2.72e-09 1.09e-12  4.20e-03     0s
  10   8.70586948e+01  8.23143664e+01  1.92e-10 1.23e-12  5.43e-04     0s
  11   8.57683184e+01  8.51877622e+01  1.17e-11 1.50e-12  6.64e-05     0s
  12   8.56640181e+01  8.55838708e+01  1.65e-12 1.16e-12  9.16e-06     0s
  13   8.56377211e+01  8.56286787e+01  3.18e-13 1.22e-12  1.03e-06     0s
  14   8.56366633e+01  8.56366609e+01  5.80e-14 1.89e-12  2.68e-10     0s
  15   8.56366625e+01  8.56366625e+01  1.67e-13 1.37e-12  2.68e-13     0s

Barrier solved model in 15 iterations and 0.06 seconds (0.04 work units)
Optimal objective 8.56366625e+01

Crossover log...

     930 DPushes remaining with DInf 0.0000000e+00                 0s
       0 DPushes remaining with DInf 0.0000000e+00                 0s

      66 PPushes remaining with PInf 0.0000000e+00                 0s
       0 PPushes remaining with PInf 0.0000000e+00                 0s

  Push phase complete: Pinf 0.0000000e+00, Dinf 1.6468424e-13      0s

Iteration    Objective       Primal Inf.    Dual Inf.      Time
      93    8.5636662e+01   0.000000e+00   0.000000e+00      0s

Solved in 93 iterations and 0.07 seconds (0.05 work units)
Optimal objective  8.563666248e+01
